93208.2
22 42 49 50 51 52 38 28 29 62 63 19 44 43 20 21 41 18 17 45 46 53 48 11 12 47 13 14 15 16 10 9 8 98 97 82 81 80 79 78 77 76 75 74 73 72 83 84 101 100 99 96 95 85 71 70 69 68 67 66 65 64 86 87 88 89 90 91 92 93 94 106 107 108 109 110 111 112 113 114 115 116 117 118 122 123 103 102 104 105 119 121 120 0 7 6 5 4 2 1 3 26 27 33 34 35 54 61 60 59 58 57 56 30 31 32 25 24 36 55 37 40 39 23 
